c b=3,c=393
p cnf 15 34
3 -6 0
3 -9 0
2 3 -13 0
1 3 -14 0
-3 6 0
-3 9 0
2 -3 13 0
2 -3 14 0
2 -5 0
2 -8 0
1 2 -12 0
2 -15 0
1 -2 3 13 0
3 -15 0
1 -2 -3 -13 0
-2 -3 15 0
-2 5 0
-2 8 0
1 -2 12 0
1 -2 -14 0
1 -4 0
1 -7 0
1 -11 0
-1 3 -13 0
2 3 -14 0
-1 -3 13 0
-1 2 12 0
-1 -2 3 14 0
-2 -3 -14 0
-1 -2 -12 0
-1 4 0
-1 7 0
-1 11 0
-10 0
